[[78, 79, 88, 89, 90, 99, 98, 97, 96, 87, 95, 86, 85], [84, 94, 93, 92, 91, 83, 82, 73, 74, 75, 76], [77, 68, 67, 59, 66, 65, 64, 56, 55, 57, 58, 49, 47, 46, 38], [48, 39, 40, 41, 32, 31, 30, 29, 37, 28, 19, 20, 21, 22], [13, 12, 11, 10, 2, 3, 4, 14, 5, 6, 7, 8, 9], [18, 17, 16, 15, 23, 24, 25, 26, 27, 35, 36, 44, 34, 33, 42, 43], [45, 54, 53, 52, 51, 50, 60, 61, 62, 63, 72, 71, 69, 70, 80, 81]]